************************************************************************
file with basedata            : md377_.bas
initial value random generator: 1892808556
************************************************************************
projects                      :  1
jobs (incl. supersource/sink ):  22
horizon                       :  162
RESOURCES
  - renewable                 :  2   R
  - nonrenewable              :  2   N
  - doubly constrained        :  0   D
************************************************************************
PROJECT INFORMATION:
pronr.  #jobs rel.date duedate tardcost  MPM-Time
    1     20      0       23       16       23
************************************************************************
PRECEDENCE RELATIONS:
jobnr.    #modes  #successors   successors
   1        1          3           2   3   4
   2        3          2           5   7
   3        3          3          10  12  17
   4        3          3           5   6  13
   5        3          3          10  12  15
   6        3          3           8  14  19
   7        3          2           9  11
   8        3          3           9  10  15
   9        3          1          16
  10        3          1          16
  11        3          1          12
  12        3          1          18
  13        3          2          14  18
  14        3          2          15  16
  15        3          1          20
  16        3          2          20  21
  17        3          2          18  20
  18        3          2          19  21
  19        3          1          22
  20        3          1          22
  21        3          1          22
  22        1          0        
************************************************************************
REQUESTS/DURATIONS:
jobnr. mode duration  R 1  R 2  N 1  N 2
------------------------------------------------------------------------
  1      1     0       0    0    0    0
  2      1     1       9    0   10   10
         2     5       0    7   10    7
         3     7       9    0   10    7
  3      1     2       7    0    8    9
         2     7       0    4    7    8
         3     9       6    0    6    5
  4      1     1       0    9    5    5
         2     6       2    0    4    5
         3     8       0    4    3    4
  5      1     1       6    0    7    4
         2     5       5    0    6    3
         3    10       0    5    6    3
  6      1     1       0    5    3    5
         2     2       0    3    2    4
         3     7       4    0    2    1
  7      1     6       9    0    7    7
         2     8       9    0    6    7
         3    10       7    0    2    6
  8      1     7       4    0    4    9
         2     9       4    0    3    6
         3    10       0    4    3    3
  9      1     2       0    7    7    3
         2     6       0    6    6    3
         3     7       4    0    5    1
 10      1     4       7    0    8    7
         2     5       0   10    7    6
         3     8       7    0    6    4
 11      1     2       0    3    3    8
         2     2       0    1    4    7
         3     7       4    0    3    7
 12      1     4       6    0    7    7
         2     6       1    0    5    6
         3     6       0    2    7    6
 13      1     3       2    0    7    7
         2     5       2    0    4    4
         3     5       2    0    1    7
 14      1     3       8    0    4    7
         2     6       0    4    3    5
         3     6       0    3    4    5
 15      1     4       8    0    8    4
         2     4       0    4    8    4
         3     9       8    0    7    2
 16      1     4       0    7   10    7
         2     7       6    0   10    6
         3     9       0    7   10    4
 17      1     4       8    0    8    8
         2     6       0    4    7    5
         3     8       6    0    7    3
 18      1     3       0    9    8    6
         2     5       5    0    6    5
         3     9       0    7    4    1
 19      1     3       0    6    3    3
         2     7       0    5    3    3
         3     9      10    0    3    3
 20      1     6       7    0   10    6
         2     8       0    3   10    5
         3    10       0    1    9    5
 21      1     6       0    8    5    5
         2     8       0    2    1    4
         3     8       3    0    3    4
 22      1     0       0    0    0    0
************************************************************************
RESOURCEAVAILABILITIES:
  R 1  R 2  N 1  N 2
   13    5  133  127
************************************************************************
MAXIMAL LAGS:
from  to  type  delay
    1   22   ES      0
    1    2   ES      0
    2   22   ES      0
    1    3   ES      0
    3   22   ES      0
    1    4   ES      0
    4   22   ES      0
    1    5   ES      0
    5   22   ES      0
    1    6   ES      0
    6   22   ES      0
    1    7   ES      0
    7   22   ES      0
    1    8   ES      0
    8   22   ES      0
    1    9   ES      0
    9   22   ES      0
    1   10   ES      0
   10   22   ES      0
    1   11   ES      0
   11   22   ES      0
    1   12   ES      0
   12   22   ES      0
    1   13   ES      0
   13   22   ES      0
    1   14   ES      0
   14   22   ES      0
    1   15   ES      0
   15   22   ES      0
    1   16   ES      0
   16   22   ES      0
    1   17   ES      0
   17   22   ES      0
    1   18   ES      0
   18   22   ES      0
    1   19   ES      0
   19   22   ES      0
    1   20   ES      0
   20   22   ES      0
    1   21   ES      0
   21   22   ES      0
    1   22   ES      0
    2    5   SS     -5
    2    5   SE     12
    2    5   ES    -10
    2    5   EE     10
    2    7   SS      6
    2    7   SE    -10
    2    7   ES      9
    2    7   EE      4
    3   10   SS    -11
    3   10   SE     -3
    3   10   ES     -5
    3   10   EE      4
    3   12   SS     -3
    3   12   SE     10
    3   12   ES     -5
    3   12   EE    -11
    3   17   SS     12
    3   17   SE      6
    3   17   ES      3
    3   17   EE      6
    4    5   SS      3
    4    5   SE     -2
    4    5   ES     12
    4    5   EE      0
    4    6   SS      4
    4    6   SE     10
    4    6   ES     -4
    4    6   EE     -7
    4   13   SS     -9
    4   13   SE      5
    4   13   ES     -9
    4   13   EE      5
    5   10   SS     12
    5   10   SE    -11
    5   10   ES    -10
    5   10   EE      4
    5   12   SS     11
    5   12   SE      3
    5   12   ES     -4
    5   12   EE      2
    5   15   SS     -7
    5   15   SE      7
    5   15   ES    -10
    5   15   EE     10
    6    8   SS     10
    6    8   SE     -5
    6    8   ES     -9
    6    8   EE     -9
    6   14   SS     -7
    6   14   SE      0
    6   14   ES     -1
    6   14   EE      7
    6   19   SS     10
    6   19   SE      2
    6   19   ES     -3
    6   19   EE      0
    7    9   SS    -12
    7    9   SE     -6
    7    9   ES    -11
    7    9   EE     -8
    7   11   SS      9
    7   11   SE     -6
    7   11   ES     -9
    7   11   EE     -8
    8    9   SS    -10
    8    9   SE      3
    8    9   ES      4
    8    9   EE     -9
    8   10   SS      2
    8   10   SE     12
    8   10   ES    -12
    8   10   EE     -3
    8   15   SS     -7
    8   15   SE     10
    8   15   ES     -5
    8   15   EE     -8
    9   16   SS      3
    9   16   SE     -2
    9   16   ES      4
    9   16   EE      5
   10   16   SS      5
   10   16   SE    -10
   10   16   ES    -10
   10   16   EE      5
   11   12   SS     -2
   11   12   SE      7
   11   12   ES     -7
   11   12   EE    -12
   12   18   SS      1
   12   18   SE     -6
   12   18   ES    -12
   12   18   EE     -4
   13   14   SS     -9
   13   14   SE      0
   13   14   ES     -1
   13   14   EE     -8
   13   18   SS      2
   13   18   SE     -7
   18   13   SE      0
   13   18   ES      0
   13   18   EE    -10
   14   15   SS      5
   14   15   SE      6
   14   15   ES     -9
   14   15   EE    -12
   14   16   SS      6
   14   16   SE     -1
   14   16   ES     -5
   14   16   EE     -9
   15   20   SS    -11
   15   20   SE    -12
   15   20   ES    -10
   15   20   EE      2
   16   20   SS      7
   16   20   SE      9
   16   20   ES     -7
   16   20   EE     12
   16   21   SS     -2
   16   21   SE    -10
   16   21   ES     -5
   16   21   EE      0
   17   18   SS      8
   17   18   SE     -7
   17   18   ES     -8
   17   18   EE     -6
   17   20   SS      5
   17   20   SE      8
   17   20   ES    -12
   17   20   EE    -10
   18   19   SS     -6
   18   19   SE      9
   18   19   ES      2
   18   19   EE    -11
   18   21   SS     -7
   18   21   SE    -12
   18   21   ES      6
   18   21   EE      8
************************************************************************
